CMPL model generation - running

CMPL version: 1.11.0
Authors: Thomas Schleiff, Mike Steglich
Distributed under the GPLv3 

create model instance ...
write model instance ...
CMPL model generation - finished

Solver - running


Welcome to IBM(R) ILOG(R) CPLEX(R) Interactive Optimizer 12.7.1.0
  with Simplex, Mixed Integer & Barrier Optimizers
5725-A06 5725-A29 5724-Y48 5724-Y49 5724-Y54 5724-Y55 5655-Y21
Copyright IBM Corp. 1988, 2017.  All Rights Reserved.

Type 'help' for a list of available commands.
Type 'help' followed by a command name for more
information on commands.

CPLEX> Specified objective sense: MINIMIZE
Selected objective  name:  line[1]
Selected RHS        name:  RHS
Selected bound      name:  BOUND
Problem '/tmp/cmpl.T24318.mps' read.
Read time = 0.09 sec. (10.13 ticks)
CPLEX> CPXPARAM_Read_APIEncoding                        "UTF-8"
Tried aggregator 3 times.
MIP Presolve eliminated 23951 rows and 37475 columns.
MIP Presolve modified 425 coefficients.
Aggregator did 811 substitutions.
Reduced MIP has 3160 rows, 4169 columns, and 12333 nonzeros.
Reduced MIP has 3959 binaries, 0 generals, 0 SOSs, and 0 indicators.
Presolve time = 0.08 sec. (50.36 ticks)
Found incumbent of value 1591.865910 after 0.17 sec. (102.71 ticks)
Probing fixed 16 vars, tightened 0 bounds.
Probing time = 0.02 sec. (5.43 ticks)
Tried aggregator 1 time.
MIP Presolve eliminated 0 rows and 16 columns.
MIP Presolve modified 89 coefficients.
Reduced MIP has 3160 rows, 4153 columns, and 12301 nonzeros.
Reduced MIP has 4153 binaries, 0 generals, 0 SOSs, and 0 indicators.
Presolve time = 0.02 sec. (10.40 ticks)
Probing time = 0.02 sec. (2.85 ticks)
Clique table members: 7576.
MIP emphasis: balance optimality and feasibility.
MIP search method: dynamic search.
Parallel mode: none, using 1 thread.
Root relaxation solution time = 0.01 sec. (7.32 ticks)

        Nodes                                         Cuts/
   Node  Left     Objective  IInf  Best Integer    Best Bound    ItCnt     Gap

*     0+    0                         1591.8659      -26.1120           101.64%
      0     0      299.8430     7     1591.8659      299.8430      266   81.16%
*     0+    0                          305.9190      299.8430             1.99%
*     0+    0                          300.0030      299.8430             0.05%
*     0     0      integral     0      299.9777      Cuts: 12      272    0.00%
      0     0        cutoff            299.9777      299.9777      272    0.00%
Elapsed time = 0.29 sec. (155.56 ticks, tree = 0.01 MB, solutions = 4)

GUB cover cuts applied:  1
Cover cuts applied:  7
Gomory fractional cuts applied:  4

Root node processing (before b&c):
  Real time             =    0.30 sec. (157.67 ticks)
Sequential b&c:
  Real time             =    0.00 sec. (0.00 ticks)
                          ------------
Total (root+branch&cut) =    0.30 sec. (157.67 ticks)

Solution pool: 4 solutions saved.

MIP - Integer optimal solution:  Objective =  2.9997772800e+02
Solution time =    0.30 sec.  Iterations = 272  Nodes = 0
Deterministic time = 157.79 ticks  (528.50 ticks/sec)

CPLEX> Incumbent solution written to file '/tmp/cmpl.T24318.gsol'.
CPLEX> 
CMPL: Time used for model generation: 1 seconds
CMPL: Time used for solving the model: 1 seconds


Solution written to ASCII file: results/output_generated_conf_0.6/2016-08-01-5/fair-nonlinear.sol

Solver - finished
